
List of user-set options:

                                    Name   Value                used
                           compl_inf_tol = 1                     yes
                         constr_viol_tol = 1                     yes
                            dual_inf_tol = 1000                  yes
                           linear_solver = ma97                  yes
                              ma86_small = 1e-30                  no
                                  ma86_u = 0.0001                 no
                              ma97_order = best                  yes
                              ma97_small = 1e-30                 yes
                            ma97_switch1 = at_start              yes
                            ma97_switch2 = od_hd_reuse           yes
                                  ma97_u = 1e-06                 yes
                               ma97_umax = 0.5                   yes
                                max_iter = 1000                  yes
                    max_refinement_steps = 20                    yes
                    min_refinement_steps = 5                     yes
                                 mu_init = 1e-06                 yes
           mu_superlinear_decrease_power = 1.25                  yes
                   nlp_scaling_min_value = 1e-08                 yes
                        option_file_name = Preset_Case:_5_pf.opt  yes
                             output_file = ./tmp/Preset_Case:_5_pf.output  yes
                      print_user_options = yes                   yes
        required_infeasibility_reduction = 1                      no
                                     tol = 1e-08                 yes
                   warm_start_bound_frac = 1e-20                 yes
                   warm_start_bound_push = 1e-20                 yes
                   warm_start_init_point = yes                   yes
              warm_start_mult_bound_push = 1e-20                 yes
                warm_start_mult_init_max = 1e+40                 yes
             warm_start_slack_bound_frac = 1e-20                 yes
             warm_start_slack_bound_push = 1e-20                 yes

******************************************************************************
This program contains Ipopt, a library for large-scale nonlinear optimization.
 Ipopt is released as open source code under the Eclipse Public License (EPL).
         For more information visit http://projects.coin-or.org/Ipopt
******************************************************************************

This is Ipopt version 3.12.10, running with linear solver ma97.

Number of nonzeros in equality constraint Jacobian...:   123443
Number of nonzeros in inequality constraint Jacobian.:      213
Number of nonzeros in Lagrangian Hessian.............:    49069

Total number of variables............................:    31591
                     variables with only lower bounds:    12912
                variables with lower and upper bounds:    15130
                     variables with only upper bounds:        0
Total number of equality constraints.................:    31483
Total number of inequality constraints...............:       25
        inequality constraints with only lower bounds:        4
   inequality constraints with lower and upper bounds:        0
        inequality constraints with only upper bounds:       21

iter    objective    inf_pr   inf_du lg(mu)  ||d||  lg(rg) alpha_du alpha_pr  ls
   0 -1.7777897e+00 4.06e-03 1.02e+00  -6.0 0.00e+00    -  0.00e+00 0.00e+00   0
   1 -1.7771644e+00 1.53e-01 1.02e+00  -6.0 4.67e+05    -  9.74e-05 8.43e-05h  5
   2 -1.7774677e+00 1.53e-01 5.03e+01  -6.0 4.54e+03    -  2.22e-01 1.94e-03h  1
   3 -1.8331291e+00 1.50e+00 6.90e+02  -6.0 4.54e+03    -  1.59e-01 3.56e-01f  1
   4 -1.8699461e+00 1.66e+00 1.00e+03  -6.0 3.94e+03    -  4.37e-01 4.27e-01h  1
   5 -1.8883864e+00 1.43e+00 9.19e+02  -6.0 3.08e+03    -  4.66e-01 4.72e-01h  1
   6 -1.8961167e+00 5.94e-01 7.60e+04  -6.0 1.79e+03    -  2.71e-01 1.00e+00H  1
   7 -1.8814924e+00 1.36e-01 1.25e+04  -6.0 7.74e+00  -4.0 1.90e-01 7.72e-01h  1
   8 -1.8812952e+00 1.31e-01 2.83e+04  -6.0 2.13e+00  -4.5 9.85e-01 3.63e-02h  1
   9 -1.8760786e+00 2.11e-03 1.53e+01  -6.0 3.10e+00  -5.0 1.00e+00 1.00e+00h  1
iter    objective    inf_pr   inf_du lg(mu)  ||d||  lg(rg) alpha_du alpha_pr  ls
  10 -1.8772702e+00 5.80e-03 6.58e-01  -6.0 6.36e+00  -5.4 1.00e+00 1.00e+00h  1
  11 -1.8778605e+00 3.45e-03 8.96e+00  -6.0 1.56e+01  -5.9 1.00e+00 5.19e-01h  1
  12 -1.8796534e+00 2.75e-02 1.96e+00  -6.0 4.03e+01  -6.4 1.00e+00 1.00e+00f  1
  13 -1.8831631e+00 9.67e-02 1.70e+00  -6.0 8.72e+01  -6.9 1.00e+00 1.00e+00h  1
  14 -1.8874740e+00 3.12e-02 3.05e+00  -6.0 2.21e+02  -7.3 1.00e+00 1.00e+00h  1
  15 -1.8882301e+00 1.02e-03 2.93e-01  -6.0 8.08e+01  -6.9 1.00e+00 1.00e+00h  1
  16 -1.8930647e+00 3.90e-01 4.00e+00  -6.0 3.09e+02  -7.4 1.00e+00 1.00e+00h  1
  17 -1.8946440e+00 2.89e-01 2.86e+01  -6.0 1.39e+02  -7.0 1.00e+00 3.05e-01h  1
  18 -1.9099082e+00 2.79e+01 2.00e+01  -6.0 1.28e+03    -  9.93e-01 1.00e+00h  1
  19 -1.9098985e+00 2.79e+01 5.27e+01  -6.0 4.41e+00  -5.6 1.00e+00 2.00e-03h  1
iter    objective    inf_pr   inf_du lg(mu)  ||d||  lg(rg) alpha_du alpha_pr  ls
  20 -1.9100617e+00 2.17e+01 1.01e+02  -6.0 1.26e+03    -  4.59e-01 3.04e-01h  1
  21 -1.9080819e+00 1.09e+01 7.03e+05  -6.0 1.51e+02  -6.1 9.08e-02 4.97e-01h  1
  22 -1.9004426e+00 7.13e-01 1.38e+06  -6.0 5.81e+01  -6.6 5.25e-02 9.37e-01h  1
  23 -1.9069576e+00 5.21e-02 5.02e+04  -6.0 2.54e+01  -5.3 1.47e-01 1.00e+00h  1
  24 -1.9102987e+00 8.19e-03 2.01e+00  -6.0 8.92e+00  -4.8 1.00e+00 1.00e+00h  1
  25 -1.9143625e+00 3.63e-02 1.53e+02  -6.0 1.16e+02  -5.3 2.12e-01 1.74e-01h  1
  26 -1.9184017e+00 3.45e+00 3.19e+03  -6.0 1.78e+03    -  1.00e+00 2.63e-01h  1
  27 -1.9270755e+00 2.98e+01 5.69e+02  -6.0 1.51e+03    -  1.00e+00 9.15e-01h  1
  28 -1.9261698e+00 1.91e+01 1.07e+03  -6.0 5.37e+02    -  9.48e-01 3.77e-01h  1
  29 -1.9249564e+00 1.28e+01 5.00e+02  -6.0 9.35e+02    -  8.26e-01 5.00e-01h  2
iter    objective    inf_pr   inf_du lg(mu)  ||d||  lg(rg) alpha_du alpha_pr  ls
  30 -1.9247142e+00 4.27e+00 2.23e+01  -6.0 5.41e+02    -  6.08e-01 9.64e-01h  1
  31 -1.9246081e+00 4.26e+00 3.73e+01  -6.0 2.12e+03    -  1.00e+00 6.25e-02h  5
  32 -1.9247517e+00 3.85e+00 2.07e+01  -6.0 7.95e+02    -  4.36e-01 3.35e-01h  1
  33 -1.9244613e+00 1.19e-02 1.01e-02  -6.0 3.27e+01    -  1.00e+00 1.00e+00h  1
  34 -1.9245068e+00 3.19e-01 5.85e-02  -6.0 1.49e+02    -  1.00e+00 1.00e+00h  1
  35 -1.9244821e+00 4.85e-05 1.25e-05  -6.0 2.17e+00    -  1.00e+00 1.00e+00h  1
  36 -1.9244821e+00 2.96e-10 2.03e-11  -6.0 7.34e-04    -  1.00e+00 1.00e+00h  1
  37 -1.9246656e+00 1.67e+00 6.40e+01  -7.5 7.96e+02    -  6.20e-01 3.99e-01f  1
  38 -1.9248581e+00 4.22e+00 4.49e+00  -7.5 5.45e+02    -  7.82e-01 8.70e-01h  1
  39 -1.9248563e+00 4.03e+00 4.55e+00  -7.5 7.00e+01    -  1.87e-01 4.39e-02h  1
iter    objective    inf_pr   inf_du lg(mu)  ||d||  lg(rg) alpha_du alpha_pr  ls
  40 -1.9248078e+00 1.98e-01 2.56e-01  -7.5 9.88e+01    -  1.00e+00 1.00e+00h  1
  41 -1.9248073e+00 4.72e-04 1.22e-04  -7.5 4.81e+00    -  1.00e+00 1.00e+00h  1
  42 -1.9248073e+00 6.78e-07 1.93e-07  -7.5 1.89e-01    -  1.00e+00 1.00e+00h  1
  43 -1.9248073e+00 2.96e-10 8.45e-12  -7.5 9.86e-04    -  1.00e+00 1.00e+00h  1
  44 -1.9248091e+00 1.99e-02 8.22e-01  -9.0 3.95e+01    -  9.15e-01 8.26e-01h  1
  45 -1.9248093e+00 1.54e-03 6.96e-01  -9.0 9.02e+00    -  8.50e-01 1.00e+00h  1
  46 -1.9248093e+00 1.77e-05 5.85e-06  -9.0 9.68e-01    -  1.00e+00 1.00e+00h  1
  47 -1.9248093e+00 1.04e-06 3.49e-07  -9.0 2.35e-01    -  1.00e+00 1.00e+00h  1
  48 -1.9248093e+00 2.88e-09 9.67e-10  -9.0 1.24e-02    -  1.00e+00 1.00e+00h  1

Number of Iterations....: 48

                                   (scaled)                 (unscaled)
Objective...............:  -1.5037572684420351e+00   -1.9248093036058049e+00
Dual infeasibility......:   9.6715288744271216e-10    1.2379556959266715e-09
Constraint violation....:   2.6483825132928018e-09    2.8776412364095454e-09
Complementarity.........:   9.0913898334205921e-10    1.1636978986778357e-09
Overall NLP error.......:   2.6483825132928018e-09    2.8776412364095454e-09


Number of objective function evaluations             = 64
Number of objective gradient evaluations             = 49
Number of equality constraint evaluations            = 64
Number of inequality constraint evaluations          = 64
Number of equality constraint Jacobian evaluations   = 49
Number of inequality constraint Jacobian evaluations = 49
Number of Lagrangian Hessian evaluations             = 48
Total CPU secs in IPOPT (w/o function evaluations)   =     89.298
Total CPU secs in NLP function evaluations           =      1.375

EXIT: Optimal Solution Found.
